3576437056605301298501,3,1,2,07,10,1,2,05,14,1,2,03,11,1,2,01,4,1,2,015,10,1,2,014,8,1,2,01,13,1,2,015,4,1,2,04,3,1,2,03,2,1,2,02,2,1,2,010,11,1,2,07,15,1,2,014,5,1,2,05,3,1,2,08,6,1,2,05,1,1,2,010,2,1,2,014,6,1,2,09,1,1,2,012,13,1,2,08,14,1,2,07,7,1,2,03,1,1,2,010,2,1,2,014,6,1,2,04,10,1,2,03,9,1,2,011,1,1,2,02,14,1,2,09,8,1,2,07,7,1,2,08,3,1,2,01,3,1,2,08,15,1,2,08,11,1,2,013,1,1,2,03,15,1,2,05,11,1,2,05,8,1,2,012,14,1,2,011,7,1,2,07,13,1,2,014,12,1,2,08,4,1,2,07,13,1,2,012,9,1,2,011,6,1,2,07,12,1,2,0